Version identifier: 20.1.0.0 | 2020-11-10 | 9bedb6d68
CPXPARAM_Threads                                 1
CPXPARAM_TimeLimit                               7200
CPXPARAM_MIP_Tolerances_MIPGap                   0
Generic callback                                 0x60
1 of 1 MIP starts provided solutions.
MIP start 'm1' defined initial solution with objective 2209.2143.
Tried aggregator 1 time.
Reduced MIP has 400501 rows, 400801 columns, and 1200800 nonzeros.
Reduced MIP has 800 binaries, 0 generals, 0 SOSs, and 0 indicators.
Presolve time = 0.40 sec. (379.65 ticks)
Probing time = 0.05 sec. (50.06 ticks)
Tried aggregator 1 time.
Reduced MIP has 400501 rows, 400801 columns, and 1200800 nonzeros.
Reduced MIP has 800 binaries, 0 generals, 0 SOSs, and 0 indicators.
Presolve time = 0.40 sec. (373.16 ticks)
Probing time = 0.05 sec. (50.06 ticks)
MIP emphasis: balance optimality and feasibility.
MIP search method: dynamic search.
Parallel mode: none, using 1 thread.
Root relaxation solution time = 0.13 sec. (154.29 ticks)

        Nodes                                         Cuts/
   Node  Left     Objective  IInf  Best Integer    Best Bound    ItCnt     Gap

*     0+    0                         2209.2143     2716.0000            22.94%
      0     0     2260.3247    29     2209.2143     2716.0000        0   22.94%
*     0+    0                         2213.3775     2260.3247             2.12%
      0     2     2213.5566    10     2213.3775     2213.5563        0    0.01%
Elapsed time = 52.36 sec. (35143.18 ticks, tree = 0.01 MB, solutions = 2)
      2     4     2213.5441    10     2213.3775     2213.5561      125    0.01%
*     3     3      integral     0     2213.5495     2213.5561      144    0.00%
      3     1     2213.5495     0     2213.5495     2213.5561      144    0.00%
      4     0        cutoff           2213.5495     2213.5495      162    0.00%

User cuts applied:  2

Root node processing (before b&c):
  Real time             =   52.34 sec. (35130.81 ticks)
Sequential b&c:
  Real time             =    9.98 sec. (1941.19 ticks)
                          ------------
Total (root+branch&cut) =   62.32 sec. (37072.00 ticks)
@Parameters: 
is_S_cut                                true
is_add_all_yinF                         true
is_start_value                          true
is_usercut                              true
is_visualization                        false
uc_only_rootnode                        false

data                                    Qi
fn                                      data/Qi/instance_500_800.csv
mode                                    ZLP
solver                                  cplex

p                                       50
r                                       2

EPS                                     1.0e-06
EPS_vio                                 1.0e-04
beta                                    0.10
gap                                     0.00
nodelimit                               Inf
timelimit                               7200.00


@PrintInfos
ItCnt: 162
Current gap: 0.00 %
Termination Status: OPTIMAL
Primal Status: FEASIBLE_POINT
Solve Time: 62.33 sec
Objective Value: 2213.549522
Number of Nodes:      5

CutInfo: [phase] num / time (sec) 
ZLP             [phase1]     0 / 0.00 [rLC]     4 / 12.54 [rUC]     1 / 2.54 [sLC]     0 / 1.44 [sUC]     0 / 6.09 
OldSubmodular   [phase1]     0 / 0.00 [rLC]     0 / 0.00 [rUC]     0 / 0.00 [sLC]     0 / 0.00 [sUC]     0 / 0.00 
NewSubmodular   [phase1]     0 / 0.00 [rLC]     0 / 0.00 [rUC]     0 / 0.00 [sLC]     0 / 0.00 [sUC]     0 / 0.00 
PMP             [phase1]     0 / 0.00 [rLC]     6 / 9.27 [rUC]     1 / 1.97 [sLC]     1 / 1.24 [sUC]     4 / 5.03 
Separation Round: [phase1] 0  [rLC] 6  [rUC] 1  [sLC] 1  [sUC] 4
Root Best Bound 2213.556092
Root Best Integer: 2213.377541
Best Bound: 2213.549522
Best Integer: 2213.549522

